nNurses = 115;
nHours = 29;
minHours = 7;
maxHours = 15;
maxConsec = 6;
maxPresence = 23;
demand = [5, 8, 8, 10, 15, 14, 19, 14, 11, 14, 10, 15, 20, 25, 22, 25, 22, 25, 22, 23, 19, 21, 24, 29, 26, 26, 27, 28, 26];
